QBPP_HJ-_25_025_06_4
25 221 57
45 44 31 24 41 19 6 44 17 39 13 15 50 20 23 43 46 5 22 3 12 18 11 49 23
     0     0     0     0     0   -11     0   -62     0     0     0     0     0     0   -30   -70   -47   -90     0   -73    -7     0     0     0   -96
     0     0   -26     0     0   -94   -50   -56     0     0     0     0     0   -35     0   -24     0   -38     0     0   -10   -55     0     0     0
     0   -26     0     0     0     0     0     0     0     0     0     0   -38     0     0     0     0   -98     0     0     0   -48     0     0     0
     0     0     0     0     0     0     0     0     0     0     0     0     0   -63     0     0   -75    -9     0    -8     0     0   -19     0     0
     0     0     0     0     0     0     0   -78     0     0     0     0     0     0   -53     0     0   -68     0     0   -30     0     0     0     0
   -11   -94     0     0     0     0     0     0   -53     0     0   -86     0     0     0     0   -41   -66     0     0     0     0     0     0     0
     0   -50     0     0     0     0     0   -92     0     0   -14   -96     0     0     0     0     0     0     0     0    -4     0     0   -54     0
   -62   -56     0     0   -78     0   -92     0     0     0     0     0     0     0     0     0     0     0     0     0   -53     0     0     0     0
     0     0     0     0     0   -53     0     0     0   -62     0     0     0     0     0     0     0     0     0     0     0     0     0   -48     0
     0     0     0     0     0     0     0     0   -62     0     0   -58     0     0     0     0     0    -7     0     0     0     0     0   -49     0
     0     0     0     0     0     0   -14     0     0     0     0     0    -1     0   -88     0     0   -18     0     0   -98     0     0   -45     0
     0     0     0     0     0   -86   -96     0     0   -58     0     0     0     0     0     0     0     0   -65     0     0     0     0     0     0
     0     0   -38     0     0     0     0     0     0     0    -1     0     0   -19   -34     0     0     0     0     0     0     0   -76     0     0
     0   -35     0   -63     0     0     0     0     0     0     0     0   -19     0     0     0    -4     0     0     0     0     0   -59     0   -28
   -30     0     0     0   -53     0     0     0     0     0   -88     0   -34     0     0   -77     0     0   -27     0     0   -56     0     0   -65
   -70   -24     0     0     0     0     0     0     0     0     0     0     0     0   -77     0   -47    -1   -41     0   -11   -70   -91   -55     0
   -47     0     0   -75     0   -41     0     0     0     0     0     0     0    -4     0   -47     0     0     0  -100     0    -8     0     0     0
   -90   -38   -98    -9   -68   -66     0     0     0    -7   -18     0     0     0     0    -1     0     0     0     0   -77     0     0   -17     0
     0     0     0     0     0     0     0     0     0     0     0   -65     0     0   -27   -41     0     0     0     0     0     0     0     0   -42
   -73     0     0    -8     0     0     0     0     0     0     0     0     0     0     0     0  -100     0     0     0   -75     0     0     0     0
    -7   -10     0     0   -30     0    -4   -53     0     0   -98     0     0     0     0   -11     0   -77     0   -75     0     0     0     0     0
     0   -55   -48     0     0     0     0     0     0     0     0     0     0     0   -56   -70    -8     0     0     0     0     0     0     0     0
     0     0     0   -19     0     0     0     0     0     0     0     0   -76   -59     0   -91     0     0     0     0     0     0     0     0     0
     0     0     0     0     0     0   -54     0   -48   -49   -45     0     0     0     0   -55     0   -17     0     0     0     0     0     0   -55
   -96     0     0     0     0     0     0     0     0     0     0     0     0   -28   -65     0     0     0   -42     0     0     0     0   -55     0
